23	3	3
7	8	7	44	50	60	
0	0	0	0	1	5	5	8	1	9	22	2	3	4	5	6	7	8	9	10	11	12	13	14	15	16	17	18	19	20	21	22	23
2	1	3	1	5	7	1	1	9	3	1	23
4	2	2	2	2	2	6	7	9	9	2	19	8
1	1	3	1	7	1	2	9	4	4	1	23
4	1	2	2	4	10	5	3	10	9	1	23
2	2	1	2	2	1	3	7	9	4	2	12	10
4	2	2	1	5	3	10	5	4	8	1	23
2	3	1	2	8	5	9	4	1	8	2	10	11
2	4	2	2	2	8	8	4	7	2	1	23
2	3	3	2	8	1	2	3	3	1	2	16	19
4	2	3	1	1	5	2	4	1	10	1	23
2	3	3	1	7	6	2	6	1	6	1	17
2	3	2	1	3	9	10	2	2	1	1	23
3	2	2	2	9	4	9	7	7	5	2	18	19
2	4	1	2	8	4	6	10	6	8	1	23
3	3	2	2	1	6	3	2	9	4	1	23
2	3	3	1	1	6	9	2	1	9	1	23
4	3	1	2	8	4	8	7	5	9	1	23
3	2	3	1	8	3	3	6	9	9	1	23
3	4	3	1	1	7	3	6	6	8	1	23
2	1	2	1	4	6	4	6	7	3	1	23
2	5	1	1	9	7	8	8	9	9	1	23
0	0	0	0	7	6	2	4	3	6	0
